job_count = 34 ;
duration = [|9, 1|8, 3|9, 5|7, 6|18, 7|15, 7|3, 3|3, 8|13, 9|17, 1|11, 2|16, 1|3, 1|15, 4|19, 8|18, 8|14, 4|2, 4|12, 7|3, 1|11, 1|10, 8|4, 8|15, 5|12, 6|11, 4|15, 2|7, 8|4, 3|14, 5|2, 1|7, 6|13, 8|12, 9|] ;
machine_count = 2 ;
cost = [|15, 25|11, 24|11, 23|18, 22|16, 26|15, 31|13, 34|19, 36|19, 21|13, 38|10, 22|11, 28|14, 26|14, 22|16, 22|12, 39|17, 21|11, 36|15, 26|11, 36|10, 35|14, 34|17, 24|13, 22|12, 32|13, 31|13, 31|14, 24|10, 29|11, 39|14, 22|18, 32|11, 26|12, 39|] ;
deadline = [85, 85, 85, 85, 85, 85, 85, 85, 85, 85, 85, 85, 85, 85, 85, 85, 85, 85, 85, 85, 85, 85, 85, 85, 85, 85, 85, 85, 85, 85, 85, 85, 85, 85] ;
release = [0, 0, 0, 0, 0, 0, 0, 0, 0, 0, 0, 0, 0, 0, 0, 0, 0, 0, 0, 0, 0, 0, 0, 0, 0, 0, 0, 0, 0, 0, 0, 0, 0, 0] ;
resource = [|1, 1|5, 5|9, 9|6, 6|1, 1|9, 9|9, 9|1, 1|4, 4|2, 2|6, 6|3, 3|1, 1|3, 3|1, 1|7, 7|6, 6|3, 3|9, 9|5, 5|4, 4|9, 9|7, 7|7, 7|1, 1|2, 2|6, 6|6, 6|3, 3|8, 8|2, 2|3, 3|1, 1|1, 1|] ;
capacities = [10, 10] ;
